21 830 1770
3 40 2090
29 360 1980
26 490 2130
5 750 2030
9 790 2260
12 1170 2300
6 1030 2070
28 1260 1910
1 1150 1760
24 1260 1500
16 1280 1200
8 1490 1630
27 1460 1420
23 1840 1240
7 1650 650
25 1280 790
19 1040 950
11 840 550
22 490 500
17 230 590
14 510 700
18 460 860
15 750 900
4 750 1100
10 710 1310
20 590 1390
13 970 1340
2 630 1660
21 830 1770


9490.34
